Route #1: 26 12 72 58 38 65 10 31 39 9 40
Route #2: 19 54 13 57 15 37 20 70 60 71 36 69 21 61 28
Route #3: 73 62 22 1 43 42 64 41 56 23 49 24 51
Route #4: 6 33 63 16 3 44 50 18 55 25 32 17
Route #5: 7 53 11 66 59 14 35 8 46
Route #6: 52 27 45 29 5 47 48 30 74 2 68 75
Route #7: 4 34 67
Cost 724